(set-info :smt-lib-version 2.6)
(set-logic QF_UFLRA)
(set-info :source |
MathSat group

|)
(set-info :category "random")
(set-info :status unsat)
(declare-fun x0 () Real)
(declare-fun x1 () Real)
(declare-fun x2 () Real)
(declare-fun x3 () Real)
(declare-fun x4 () Real)
(declare-fun x5 () Real)
(declare-fun x6 () Real)
(declare-fun x7 () Real)
(declare-fun x8 () Real)
(declare-fun x9 () Real)
(declare-fun x10 () Real)
(declare-fun x11 () Real)
(declare-fun x12 () Real)
(declare-fun x13 () Real)
(declare-fun x14 () Real)
(declare-fun x15 () Real)
(declare-fun x16 () Real)
(declare-fun x17 () Real)
(declare-fun x18 () Real)
(declare-fun x19 () Real)
(declare-fun x20 () Real)
(declare-fun x21 () Real)
(declare-fun x22 () Real)
(declare-fun x23 () Real)
(declare-fun x24 () Real)
(declare-fun x25 () Real)
(declare-fun x26 () Real)
(declare-fun x27 () Real)
(declare-fun x28 () Real)
(declare-fun x29 () Real)
(declare-fun f0_1 (Real) Real)
(declare-fun f0_2 (Real Real) Real)
(declare-fun f0_3 (Real Real Real) Real)
(declare-fun f0_4 (Real Real Real Real) Real)
(declare-fun P0 () Bool)
(declare-fun P1 () Bool)
(declare-fun P2 () Bool)
(declare-fun P3 () Bool)
(declare-fun P4 () Bool)
(declare-fun P5 () Bool)
(declare-fun P6 () Bool)
(declare-fun P7 () Bool)
(declare-fun P8 () Bool)
(declare-fun P9 () Bool)
(declare-fun P10 () Bool)
(declare-fun P11 () Bool)
(declare-fun P12 () Bool)
(declare-fun P13 () Bool)
(declare-fun P14 () Bool)
(declare-fun P15 () Bool)
(declare-fun P16 () Bool)
(declare-fun P17 () Bool)
(declare-fun P18 () Bool)
(declare-fun P19 () Bool)
(declare-fun P20 () Bool)
(declare-fun P21 () Bool)
(declare-fun P22 () Bool)
(declare-fun P23 () Bool)
(declare-fun P24 () Bool)
(declare-fun P25 () Bool)
(declare-fun P26 () Bool)
(declare-fun P27 () Bool)
(declare-fun P28 () Bool)
(declare-fun P29 () Bool)
(assert (let ((?v_72 (* 30 x25)) (?v_5 (* 32 x25)) (?v_11 (* 35 x8)) (?v_54 (* 33 x4))) (let ((?v_26 (<= (- (+ ?v_54 (* 36 x18)) (* 12 x5)) 8)) (?v_88 (* 9 x11)) (?v_146 (= (- (- (* 32 x2) (* 12 x13)) (* 29 x25)) 29)) (?v_21 (* 9 x16)) (?v_68 (< (+ (- (* 3 x8) (* 6 x3)) (* 10 x8)) 0)) (?v_53 (* 9 x8)) (?v_0 (* 40 x8))) (let ((?v_3 (< (+ (- ?v_0 (* 16 x18)) (* 40 x7)) 5)) (?v_42 (= x25 x2)) (?v_15 (f0_1 x10))) (let ((?v_43 (distinct x16 ?v_15)) (?v_57 (f0_1 x9))) (let ((?v_86 (distinct ?v_57 x18)) (?v_96 (= x13 (f0_1 x18))) (?v_38 (= x23 x13)) (?v_16 (= (f0_1 x19) ?v_15)) (?v_76 (f0_1 x1))) (let ((?v_71 (distinct (f0_2 x24 x0) ?v_76)) (?v_35 (distinct x4 (f0_1 x7))) (?v_83 (= (f0_2 x20 x6) (f0_1 x5))) (?v_39 (= x21 (f0_2 x7 x6))) (?v_152 (= (f0_1 x11) (f0_1 x22))) (?v_60 (distinct x17 x8)) (?v_19 (= x21 x17)) (?v_111 (distinct (f0_2 x4 x2) x13)) (?v_106 (distinct (f0_1 x28) ?v_76)) (?v_28 (distinct x22 x19)) (?v_18 (= (f0_2 x18 x25) x15)) (?v_123 (distinct (f0_2 x21 x20) (f0_2 x26 x0))) (?v_44 (= (f0_2 x27 x16) (f0_1 x13))) (?v_103 (= (f0_2 x4 x11) (f0_1 x21))) (?v_81 (distinct (f0_1 x0) x11)) (?v_32 (f0_1 x14))) (let ((?v_59 (distinct x14 ?v_32)) (?v_23 (= x3 (f0_2 x25 x24))) (?v_27 (= ?v_57 (f0_1 x6))) (?v_2 (distinct x17 (f0_2 x27 x6))) (?v_25 (distinct x8 (f0_2 x15 x29))) (?v_29 (= x16 (f0_2 x5 x4))) (?v_14 (distinct (f0_1 x16) x25)) (?v_8 (= (f0_2 x27 x9) x10)) (?v_48 (= ?v_32 x18)) (?v_31 (not ?v_3)) (?v_34 (not P2)) (?v_22 (not P23)) (?v_100 (not P10))) (let ((?v_75 (not ?v_2)) (?v_62 (not P25)) (?v_10 (not ?v_19)) (?v_65 (not ?v_8)) (?v_50 (not P5)) (?v_17 (not P1)) (?v_133 (not ?v_146)) (?v_64 (not P21)) (?v_63 (not ?v_18)) (?v_153 (not ?v_14)) (?v_144 (not ?v_43)) (?v_24 (not ?v_16)) (?v_46 (not ?v_28)) (?v_151 (not ?v_103)) (?v_85 (not ?v_23)) (?v_61 (not P27)) (?v_108 (not ?v_25)) (?v_52 (not ?v_26)) (?v_95 (not ?v_27)) (?v_158 (not P8)) (?v_91 (not P14)) (?v_47 (not ?v_71)) (?v_149 (not ?v_152)) (?v_45 (not ?v_81)) (?v_161 (not P4)) (?v_49 (not P19)) (?v_135 (not ?v_38)) (?v_55 (not P24)) (?v_94 (not P22)) (?v_89 (not ?v_35)) (?v_101 (not P12)) (?v_141 (not ?v_42)) (?v_82 (not P11)) (?v_114 (not ?v_60)) (?v_74 (not P29)) (?v_107 (not P28)) (?v_116 (not P16)) (?v_69 (not ?v_68)) (?v_93 (not P13)) (?v_90 (not P3)) (?v_79 (not ?v_59)) (?v_84 (not P6)) (?v_104 (not ?v_83)) (?v_97 (not ?v_44)) (?v_121 (not P7)) (?v_125 (not P0)) (?v_98 (not P15)) (?v_99 (not P20)) (?v_159 (not ?v_96)) (?v_109 (not ?v_48)) (?v_113 (not ?v_106)) (?v_131 (not P17)) (?v_136 (not ?v_111)) (?v_128 (not P26)) (?v_155 (not ?v_86)) (?v_142 (not ?v_123)) (?v_154 (not ?v_39)) (?v_156 (not ?v_29)) (?v_160 (not P18)) (?v_162 (not P9)) (?v_37 (<= (+ (* 13 x17) (* 30 x10) (* 42 x21)) 9))) (let ((?v_73 (not ?v_37)) (?v_140 (<= (- (+ (* 16 x27) ?v_0) x21) 41))) (let ((?v_9 (not ?v_140)) (?v_118 (< (- (* 7 x10) (* 17 x26)) 16))) (let ((?v_4 (not ?v_118)) (?v_110 (<= (- ?v_53 ?v_53) 35))) (let ((?v_66 (not ?v_110)) (?v_6 (distinct (- (- (* 8 x10) 0) (* 38 x3)) (- 39))) (?v_51 (< (+ (* (- 3) x25) ?v_88 ?v_21) (- 24)))) (let ((?v_1 (not ?v_51)) (?v_77 (<= (+ (- (* (- 30) x20) 0) (* 37 x28)) 37)) (?v_20 (= (+ (* (- 7) x22) ?v_72 ?v_5) (- 23))) (?v_122 (<= (+ (- (* 35 x29) (* 25 x29)) (* 11 x5)) (- 11)))) (let ((?v_134 (not ?v_122))) (let ((?v_137 (or (or ?v_134 P18) P1)) (?v_7 (< (+ (* 25 x14) (* 35 x18) ?v_5) (- 12))) (?v_78 (not ?v_6))) (let ((?v_40 (not ?v_7)) (?v_13 (<= (- (- (* 37 x25) ?v_11) (* 23 x12)) (- 35))) (?v_33 (< (+ (- (* 15 x8) (* 31 x29)) (* 15 x28)) (- 20))) (?v_12 (< (+ (- (* (- 40) x28) ?v_11) (* 11 x10)) 10))) (let ((?v_56 (not ?v_13)) (?v_115 (< (+ (- (* 12 x8) (* 34 x3)) (* 38 x9)) (- 38)))) (let ((?v_130 (not ?v_115)) (?v_30 (distinct (+ (- (* (- 13) x16) (* 8 x2)) (* 28 x22)) 1))) (let ((?v_102 (not ?v_30)) (?v_117 (not ?v_20)) (?v_41 (distinct (+ (* (- 6) x19) (* 3 x5) ?v_21) 9)) (?v_70 (distinct (+ (* (- 31) x5) (* 33 x20) (* 22 x5)) (- 18))) (?v_36 (< (- (+ (* (- 22) x16) (* 31 x18)) (* 3 x14)) 18))) (let ((?v_157 (or (or ?v_70 ?v_95) ?v_36)) (?v_112 (not ?v_36)) (?v_132 (not ?v_41)) (?v_67 (<= (+ (* (- 6) x20) (* 40 x28) (* 41 x21)) (- 2))) (?v_58 (<= (- (- (* (- 15) x7) (* 39 x10)) ?v_54) (- 14))) (?v_105 (not ?v_12))) (let ((?v_124 (not ?v_58)) (?v_126 (not ?v_67)) (?v_127 (<= (- (- ?v_72 (* 17 x24)) (* 40 x24)) (- 17)))) (let ((?v_80 (not ?v_127)) (?v_87 (distinct (+ (- (* (- 15) x6) (* 25 x24)) (* 31 x5)) 42)) (?v_150 (< (- (+ (* (- 32) x22) (* 29 x28)) (* 26 x22)) 38))) (let ((?v_120 (not ?v_150)) (?v_92 (= (- (+ (* 41 x17) ?v_88) (* 31 x11)) (- 2)))) (let ((?v_145 (not ?v_92)) (?v_139 (<= (- (+ (* 11 x11) (* 17 x27)) (* 27 x11)) (- 28)))) (let ((?v_163 (not ?v_139)) (?v_138 (not ?v_70)) (?v_129 (not ?v_33)) (?v_119 (distinct (- (+ (* (- 6) x16) (* 2 x27)) (* 39 x1)) 0))) (let ((?v_148 (not ?v_119)) (?v_143 (not ?v_77)) (?v_147 (not ?v_87))) (and (and (and (and (and (and (and (and (and (and (and (and (and (and (and (and (and (and (and (and (and (and (and (and (and (and (and (and (and (and (and (and (and (and (and (and (and (and (and (and (and (and (and (and (and (and (and (and (and (and (and (and (and (and (and (and (and (and (and (and (and (and (and (and (and (and (and (and (and (and (and (and (and (and (and (and (and (and (and (and (and (and (and (and (and (and (and (and (and (and (and (and (and (and (and (and (and (and (and (and (and (and (and (and (and (and (and (and (and (and (and (and (and (and (and (and (and (and (and (and (and (and (and (and (and (and (and (and (and (and (and (and (and (and (and (and (and (and (and (and (and (and (and (and (and (and (and (and (and (and (and (and (and (and (and (and (and (and (and (and (and (and (and (and (and (and (and (and (and (and (and (and (and (and (and (and (and (and (and (and (and (and (and (and (and (and (and (and (and (and (and (and (and (and (and (and (and (and (and (and (and (and (and (and (and (and (and (and (and (and (and (and (and (and (and (and (and (and (and (and (and (and (and (and (and (and (and (and (and (and (and (and (and (and (and (and (and (and (and (and (and (and (and (and (and (and (and (and (and (and (and (and (and (and (and (and (and (and (and (and (and (and (and (and (and (and (and (and (and (and (and (and (and (and (and (and (and (and (and (and (and (and (and (and (and (and (and (and (and (and (and (and (and (and (and (and (and (and (and (and (and (and (and (and (and (and (and (and (and (and (and (and (and (and (and (and (and (and (and (and (and (and (and (and (and (and (and (and (and (and (and (and (and (and (and (and (and (and (and (and (and (and (and (and (and (and (and (and (and (and (and (and (and (and (and (and (and (and (and (and (and (and (and (and (and (and (and (and (and (and (and (and (and (and (and (and (and (and (and (and (and (and (and (and (and (and (and (and (and (and (and (and (and (and (and (and (and (and (and (and (and (and (and (and (and (and (and (and (and (and (and (and (and (and (and (and (and (and (and (and (and (and (and (and (and (and (and (and (and (and (and (and (and (and (and (and (and (and (and (and (and (and (and (and (and (and (and (and (and (or (or ?v_73 ?v_35) ?v_27) (or (or ?v_6 ?v_31) ?v_34)) (or (or ?v_22 ?v_39) P6)) (or (or ?v_1 ?v_9) ?v_77)) (or (or ?v_44 ?v_96) ?v_2)) (or (or ?v_100 ?v_14) ?v_4)) (or (or P21 ?v_1) ?v_20)) (or (or ?v_75 P8) ?v_3)) ?v_137) (or (or ?v_4 ?v_7) P18)) (or (or ?v_62 ?v_8) ?v_78)) (or (or ?v_60 P20) ?v_25)) (or (or ?v_10 ?v_40) ?v_65)) (or (or P13 P7) P15)) (or (or P19 P11) P20)) (or (or ?v_38 ?v_50) P11)) (or (or ?v_23 ?v_17) ?v_133)) (or (or P15 ?v_13) ?v_64)) (or (or P12 ?v_9) ?v_63)) (or (or ?v_33 ?v_10) ?v_12)) (or (or ?v_16 ?v_12) ?v_56)) (or (or ?v_153 ?v_130) ?v_144)) (or (or ?v_24 ?v_46) ?v_17)) (or (or P12 ?v_42) P3)) (or (or ?v_102 ?v_18) ?v_26)) (or (or P11 P21) P3)) (or (or ?v_151 P3) ?v_19)) (or (or ?v_117 P13) ?v_7)) (or (or ?v_41 ?v_59) ?v_22)) (or (or ?v_85 ?v_29) ?v_24)) (or (or ?v_61 ?v_108) ?v_52)) ?v_157) (or (or P17 ?v_158) P19)) (or (or ?v_16 ?v_2) ?v_91)) (or (or ?v_28 ?v_68) ?v_29)) (or (or ?v_30 ?v_31) ?v_48)) (or (or ?v_47 ?v_149) ?v_33)) (or (or ?v_45 ?v_161) ?v_49)) (or (or P28 ?v_17) ?v_34)) (or (or ?v_35 ?v_20) ?v_112)) (or (or P3 P16) ?v_37)) (or (or ?v_135 P25) ?v_31)) (or (or ?v_22 ?v_55) ?v_39)) (or (or ?v_40 ?v_132) ?v_42)) (or (or P25 ?v_94) ?v_34)) (or (or ?v_43 ?v_29) ?v_89)) (or (or ?v_27 P5) ?v_44)) (or (or P15 P6) ?v_45)) (or (or ?v_101 ?v_46) ?v_67)) (or (or ?v_141 P16) ?v_47)) (or (or ?v_48 ?v_49) ?v_50)) (or (or ?v_51 ?v_29) ?v_20)) (or (or ?v_8 ?v_14) ?v_82)) (or (or ?v_52 ?v_66) ?v_58)) (or (or ?v_12 ?v_105) ?v_28)) (or (or ?v_55 ?v_56) ?v_86)) (or (or P26 ?v_55) ?v_1)) (or (or ?v_34 P29) ?v_124)) (or (or ?v_48 ?v_24) P13)) (or (or P16 P21) ?v_59)) (or (or P13 ?v_114) ?v_74)) (or (or ?v_61 ?v_62) ?v_37)) (or (or ?v_50 ?v_9) ?v_63)) (or (or ?v_107 ?v_64) ?v_65)) (or (or ?v_1 ?v_116) ?v_83)) (or (or ?v_66 ?v_126) P27)) (or (or ?v_41 ?v_23) ?v_69)) (or (or ?v_93 ?v_69) ?v_70)) (or (or ?v_90 P6) ?v_71)) (or (or P21 ?v_62) ?v_7)) (or (or ?v_62 ?v_79) ?v_22)) (or (or ?v_31 ?v_80) ?v_73)) (or (or ?v_47 ?v_74) ?v_84)) (or (or ?v_75 P18) ?v_106)) (or (or ?v_30 ?v_77) ?v_55)) (or (or ?v_78 ?v_62) P9)) (or (or ?v_79 ?v_3) ?v_80)) (or (or ?v_81 ?v_33) ?v_82)) (or (or ?v_104 ?v_84) ?v_85)) (or (or ?v_10 ?v_87) ?v_97)) (or (or ?v_20 ?v_86) ?v_87)) (or (or P27 P20) ?v_120)) (or (or ?v_12 ?v_145) ?v_71)) (or (or ?v_89 ?v_8) ?v_27)) (or (or ?v_10 ?v_51) P7)) (or (or P19 ?v_58) ?v_90)) (or (or P20 ?v_56) ?v_121)) (or (or P2 P3) ?v_12)) (or (or ?v_125 ?v_90) ?v_91)) (or (or ?v_163 ?v_85) ?v_39)) (or (or ?v_91 ?v_111) P1)) (or (or ?v_92 P10) ?v_98)) (or (or ?v_26 P24) ?v_19)) (or (or ?v_10 ?v_36) P4)) (or (or ?v_93 ?v_87) ?v_42)) (or (or ?v_4 ?v_94) ?v_95)) (or (or ?v_13 ?v_99) P2)) (or (or ?v_81 ?v_159) ?v_97)) (or (or ?v_22 ?v_19) ?v_49)) (or (or ?v_98 ?v_44) ?v_109)) (or (or P14 ?v_14) ?v_6)) (or (or ?v_90 P5) ?v_98)) (or (or ?v_99 P13) ?v_100)) (or (or ?v_30 ?v_45) ?v_101)) (or (or P9 ?v_89) ?v_69)) (or (or ?v_71 ?v_102) ?v_78)) (or (or ?v_31 ?v_52) P7)) (or (or ?v_37 ?v_34) ?v_103)) (or (or ?v_104 ?v_26) P8)) (or (or ?v_46 ?v_105) P6)) (or (or P23 ?v_113) ?v_97)) (or (or ?v_107 ?v_138) ?v_75)) (or (or ?v_108 ?v_92) ?v_13)) (or (or P28 ?v_131) P1)) (or (or ?v_2 ?v_93) ?v_109)) (or (or ?v_129 P27) ?v_99)) (or (or ?v_50 ?v_28) ?v_79)) (or (or P26 ?v_26) P16)) (or (or ?v_90 ?v_110) ?v_83)) (or (or ?v_83 P25) ?v_111)) (or (or ?v_65 ?v_10) ?v_106)) (or (or ?v_35 P19) ?v_77)) (or (or ?v_30 P9) ?v_10)) (or (or P9 ?v_112) ?v_113)) (or (or ?v_34 ?v_85) ?v_114)) (or (or ?v_68 ?v_115) ?v_82)) (or (or ?v_66 P1) P12)) (or (or ?v_116 ?v_35) ?v_14)) (or (or ?v_75 ?v_1) ?v_66)) (or (or ?v_10 ?v_49) ?v_28)) (or (or P27 ?v_42) ?v_102)) (or (or P0 ?v_2) ?v_117)) (or (or P13 P14) ?v_136)) (or (or ?v_87 ?v_68) ?v_30)) (or (or ?v_1 ?v_118) ?v_22)) (or (or P17 ?v_148) P8)) (or (or P21 ?v_143) ?v_26)) (or (or P7 ?v_91) ?v_128)) (or (or ?v_123 ?v_97) ?v_43)) (or (or ?v_45 P13) ?v_119)) (or (or ?v_114 ?v_155) ?v_50)) (or (or ?v_120 ?v_67) ?v_82)) (or (or P8 ?v_121) ?v_49)) (or (or ?v_99 P27) ?v_122)) (or (or ?v_123 ?v_124) ?v_66)) (or (or ?v_125 ?v_44) ?v_102)) (or (or ?v_117 ?v_20) ?v_25)) (or (or ?v_97 ?v_19) P16)) (or (or P6 ?v_96) ?v_81)) (or (or ?v_126 ?v_18) ?v_119)) (or (or ?v_64 ?v_43) ?v_111)) (or (or ?v_96 ?v_127) ?v_81)) (or (or ?v_101 ?v_114) ?v_128)) (or (or ?v_79 ?v_22) ?v_9)) (or (or ?v_20 ?v_90) ?v_78)) (or (or ?v_129 ?v_94) ?v_130)) (or (or ?v_66 P16) ?v_78)) (or (or ?v_3 P1) P14)) (or (or ?v_116 P11) ?v_52)) (or (or ?v_13 ?v_50) ?v_55)) (or (or ?v_67 ?v_8) P28)) (or (or ?v_131 ?v_132) ?v_100)) (or (or ?v_19 ?v_37) ?v_96)) (or (or ?v_109 ?v_10) ?v_85)) (or (or ?v_133 ?v_27) ?v_50)) (or (or ?v_50 P24) P12)) (or (or P27 P24) ?v_134)) (or (or P25 ?v_142) ?v_135)) (or (or ?v_58 P17) P25)) (or (or ?v_18 ?v_136) ?v_8)) ?v_137) (or (or ?v_135 ?v_138) P29)) (or (or ?v_51 ?v_34) ?v_106)) (or (or ?v_43 ?v_7) ?v_139)) (or (or ?v_100 P17) ?v_52)) (or (or ?v_41 ?v_138) P2)) (or (or ?v_140 P7) P1)) (or (or ?v_125 ?v_141) ?v_102)) (or (or ?v_69 ?v_115) ?v_70)) (or (or ?v_79 ?v_142) ?v_99)) (or (or ?v_92 ?v_136) ?v_119)) (or (or ?v_139 ?v_19) ?v_104)) (or (or ?v_1 ?v_122) ?v_105)) (or (or ?v_132 ?v_147) ?v_97)) (or (or ?v_51 P25) ?v_132)) (or (or P17 ?v_4) ?v_34)) (or (or ?v_154 ?v_59) ?v_90)) (or (or ?v_98 ?v_131) ?v_64)) (or (or P23 ?v_97) ?v_43)) (or (or ?v_87 ?v_10) ?v_124)) (or (or ?v_71 ?v_2) ?v_85)) (or (or ?v_143 P9) ?v_25)) (or (or ?v_125 P5) ?v_113)) (or (or ?v_112 ?v_123) ?v_144)) (or (or ?v_17 P26) ?v_45)) (or (or ?v_52 ?v_145) ?v_146)) (or (or ?v_125 ?v_36) ?v_81)) (or (or ?v_97 ?v_22) P14)) (or (or ?v_9 ?v_40) ?v_19)) (or (or ?v_147 ?v_63) ?v_119)) (or (or ?v_62 ?v_148) ?v_70)) (or (or P20 ?v_149) P3)) (or (or P25 ?v_64) ?v_101)) (or (or ?v_9 P29) ?v_67)) (or (or ?v_119 ?v_78) ?v_145)) (or (or P28 ?v_55) ?v_122)) (or (or ?v_52 ?v_103) ?v_110)) (or (or ?v_132 ?v_148) ?v_60)) (or (or ?v_48 ?v_143) ?v_31)) (or (or P29 P24) ?v_69)) (or (or ?v_122 ?v_82) ?v_119)) (or (or ?v_98 ?v_69) ?v_79)) (or (or ?v_150 ?v_29) ?v_89)) (or (or ?v_79 ?v_43) ?v_28)) (or (or ?v_86 ?v_151) ?v_119)) (or (or ?v_156 ?v_117) ?v_98)) (or (or ?v_146 ?v_33) ?v_110)) (or (or ?v_19 ?v_71) ?v_6)) (or (or ?v_68 ?v_29) ?v_146)) (or (or P13 P19) ?v_20)) (or (or P4 P3) P8)) (or (or ?v_125 ?v_149) ?v_145)) (or (or ?v_147 ?v_107) ?v_3)) (or (or ?v_35 ?v_35) ?v_42)) (or (or ?v_40 ?v_107) ?v_48)) (or (or ?v_139 ?v_89) ?v_2)) (or (or ?v_123 ?v_109) P1)) (or (or ?v_109 P1) ?v_152)) (or (or ?v_75 ?v_108) ?v_70)) (or (or P19 P6) ?v_17)) (or (or ?v_114 ?v_74) P19)) (or (or P23 ?v_51) ?v_12)) (or (or ?v_114 ?v_94) ?v_135)) (or (or ?v_133 ?v_49) ?v_95)) (or (or ?v_118 ?v_121) ?v_131)) (or (or ?v_59 ?v_124) P21)) (or (or P25 ?v_25) ?v_69)) (or (or ?v_39 ?v_89) ?v_153)) (or (or ?v_132 P15) ?v_116)) (or (or P26 P28) ?v_117)) (or (or ?v_49 P11) ?v_138)) (or (or ?v_146 P10) ?v_48)) (or (or ?v_18 ?v_112) P2)) (or (or ?v_41 ?v_154) ?v_140)) (or (or ?v_34 ?v_128) ?v_124)) (or (or ?v_83 ?v_130) ?v_140)) (or (or ?v_10 ?v_12) ?v_37)) (or (or ?v_86 ?v_69) ?v_133)) (or (or ?v_110 ?v_100) ?v_106)) (or (or ?v_65 ?v_87) ?v_122)) (or (or ?v_140 ?v_62) ?v_73)) (or (or P23 ?v_134) ?v_106)) (or (or ?v_64 ?v_12) ?v_111)) (or (or P28 ?v_86) ?v_61)) (or (or ?v_2 ?v_6) ?v_19)) (or (or ?v_2 ?v_28) ?v_6)) (or (or ?v_41 ?v_24) ?v_155)) (or (or ?v_160 P13) P29)) (or (or ?v_108 ?v_63) ?v_147)) (or (or P16 ?v_62) P0)) (or (or ?v_113 P26) ?v_3)) (or (or ?v_81 ?v_28) ?v_79)) (or (or ?v_69 ?v_123) P9)) (or (or P0 ?v_69) ?v_2)) (or (or ?v_132 ?v_114) ?v_49)) (or (or ?v_7 ?v_95) P0)) (or (or ?v_143 ?v_156) ?v_46)) (or (or ?v_77 ?v_41) ?v_104)) (or (or P13 ?v_61) ?v_48)) ?v_157) (or (or ?v_41 P12) ?v_38)) (or (or ?v_23 ?v_105) ?v_92)) (or (or P11 ?v_127) ?v_148)) (or (or ?v_20 ?v_33) P6)) (or (or ?v_139 ?v_22) ?v_20)) (or (or ?v_119 ?v_87) ?v_59)) (or (or ?v_87 ?v_142) ?v_107)) (or (or ?v_30 ?v_7) ?v_126)) (or (or ?v_48 ?v_50) ?v_35)) (or (or ?v_102 ?v_78) ?v_26)) (or (or P13 ?v_109) ?v_63)) (or (or P16 ?v_10) ?v_44)) (or (or ?v_97 ?v_80) ?v_140)) (or (or ?v_149 ?v_130) ?v_66)) (or (or ?v_148 ?v_119) ?v_97)) (or (or ?v_90 ?v_90) ?v_70)) (or (or ?v_7 ?v_90) ?v_50)) (or (or ?v_84 ?v_9) ?v_79)) (or (or ?v_85 ?v_6) ?v_131)) (or (or ?v_158 ?v_98) P14)) (or (or ?v_110 ?v_121) ?v_44)) (or (or P28 P5) ?v_2)) (or (or ?v_9 ?v_104) ?v_94)) (or (or ?v_94 ?v_101) ?v_81)) (or (or ?v_159 ?v_12) ?v_115)) (or (or ?v_83 ?v_62) ?v_48)) (or (or ?v_49 ?v_18) P8)) (or (or ?v_35 ?v_95) P19)) (or (or ?v_48 ?v_89) ?v_39)) (or (or ?v_28 ?v_100) ?v_45)) (or (or ?v_109 ?v_136) ?v_113)) (or (or ?v_37 ?v_61) ?v_143)) (or (or ?v_133 ?v_99) ?v_140)) (or (or P18 ?v_25) ?v_40)) (or (or P7 ?v_34) ?v_7)) (or (or ?v_56 ?v_149) ?v_1)) (or (or ?v_73 ?v_61) ?v_156)) (or (or ?v_66 ?v_124) ?v_64)) (or (or ?v_68 ?v_67) ?v_82)) (or (or ?v_29 ?v_112) ?v_160)) (or (or P19 ?v_62) P17)) (or (or ?v_91 P12) ?v_93)) (or (or ?v_6 P2) ?v_79)) (or (or P13 ?v_154) ?v_136)) (or (or ?v_39 ?v_25) ?v_151)) (or (or ?v_65 P29) P25)) (or (or ?v_29 ?v_87) ?v_13)) (or (or ?v_161 ?v_2) ?v_12)) (or (or ?v_156 P22) ?v_2)) (or (or ?v_114 ?v_8) P18)) (or (or P4 ?v_84) ?v_66)) (or (or ?v_133 P19) ?v_147)) (or (or P10 ?v_124) ?v_70)) (or (or P27 ?v_104) ?v_33)) (or (or ?v_153 ?v_33) ?v_17)) (or (or ?v_29 ?v_77) ?v_90)) (or (or ?v_97 ?v_116) ?v_81)) (or (or ?v_158 ?v_100) ?v_3)) (or (or ?v_25 ?v_29) P17)) (or (or ?v_122 ?v_134) ?v_80)) (or (or ?v_34 ?v_33) ?v_162)) (or (or ?v_67 P16) ?v_104)) (or (or ?v_111 ?v_102) ?v_27)) (or (or ?v_70 ?v_49) ?v_41)) (or (or P24 ?v_105) P4)) (or (or ?v_62 ?v_58) ?v_97)) (or (or ?v_24 ?v_64) ?v_112)) (or (or ?v_80 ?v_69) ?v_121)) (or (or ?v_90 ?v_65) ?v_130)) (or (or ?v_64 P10) ?v_52)) (or (or ?v_49 ?v_114) ?v_101)) (or (or P11 ?v_78) ?v_161)) (or (or ?v_77 ?v_63) ?v_44)) (or (or ?v_37 P16) ?v_75)) (or (or ?v_135 ?v_19) ?v_134)) (or (or ?v_55 ?v_64) ?v_75)) (or (or ?v_78 ?v_122) ?v_131)) (or (or ?v_141 ?v_81) ?v_74)) (or (or ?v_3 ?v_96) ?v_148)) (or (or ?v_42 ?v_110) P16)) (or (or ?v_121 ?v_68) ?v_79)) (or (or P28 ?v_27) ?v_79)) (or (or P15 ?v_129) ?v_39)) (or (or ?v_2 ?v_58) ?v_114)) (or (or ?v_101 ?v_39) ?v_25)) (or (or ?v_83 ?v_93) ?v_75)) (or (or ?v_112 ?v_8) ?v_75)) (or (or ?v_27 ?v_104) ?v_58)) (or (or P17 ?v_122) ?v_44)) (or (or ?v_148 P20) ?v_102)) (or (or ?v_92 ?v_127) ?v_132)) (or (or ?v_133 ?v_43) ?v_114)) (or (or P26 ?v_141) ?v_6)) (or (or ?v_116 ?v_161) ?v_104)) (or (or ?v_97 P23) P14)) (or (or ?v_62 ?v_161) ?v_1)) (or (or P27 P21) P1)) (or (or ?v_49 P6) ?v_120)) (or (or ?v_60 P14) ?v_146)) (or (or ?v_48 ?v_100) P8)) (or (or ?v_123 ?v_77) ?v_120)) (or (or ?v_73 ?v_6) ?v_3)) (or (or ?v_95 ?v_136) ?v_124)) (or (or P8 ?v_82) ?v_133)) (or (or ?v_73 ?v_161) ?v_13)) (or (or P20 ?v_155) P12)) (or (or ?v_51 P22) ?v_129)) (or (or ?v_125 P16) ?v_162)) (or (or ?v_145 ?v_124) P28)) (or (or P5 ?v_139) ?v_82)) (or (or ?v_86 ?v_129) ?v_81)) (or (or ?v_42 ?v_141) ?v_133)) (or (or P21 ?v_58) ?v_65)) (or (or P19 ?v_155) P25)) (or (or ?v_107 ?v_92) ?v_22)) (or (or ?v_73 ?v_63) P8)) (or (or ?v_23 ?v_24) P6)) (or (or ?v_63 ?v_34) ?v_60)) (or (or ?v_85 ?v_141) ?v_61)) (or (or ?v_97 P16) ?v_12)) (or (or ?v_156 ?v_62) P27)) (or (or ?v_139 P12) ?v_131)) (or (or ?v_139 P19) ?v_25)) (or (or ?v_102 ?v_28) ?v_132)) (or (or ?v_110 ?v_156) ?v_99)) (or (or ?v_149 ?v_18) ?v_125)) (or (or ?v_87 P24) ?v_132)) (or (or ?v_152 ?v_105) ?v_13)) (or (or ?v_95 ?v_120) P19)) (or (or ?v_95 P6) ?v_66)) (or (or ?v_129 P8) P11)) (or (or ?v_13 ?v_30) ?v_18)) (or (or ?v_116 ?v_22) ?v_2)) (or (or ?v_113 ?v_19) ?v_134)) (or (or ?v_77 P4) ?v_19)) (or (or ?v_90 ?v_71) ?v_152)) (or (or ?v_162 ?v_17) ?v_75)) (or (or ?v_114 ?v_22) ?v_150)) (or (or ?v_73 ?v_101) ?v_2)) (or (or ?v_110 ?v_106) ?v_8)) (or (or ?v_6 P25) ?v_105)) (or (or ?v_3 ?v_86) ?v_113)) (or (or P28 ?v_69) ?v_59)) (or (or ?v_36 P23) ?v_81)) (or (or ?v_113 ?v_144) P26)) (or (or ?v_118 ?v_22) P24)) (or (or ?v_64 ?v_107) P3)) (or (or ?v_43 ?v_43) ?v_100)) (or (or ?v_144 ?v_143) P19)) (or (or ?v_34 ?v_63) P7)) (or (or ?v_98 ?v_163) ?v_150)) (or (or P14 ?v_83) ?v_111)) (or (or ?v_151 ?v_51) P7)) (or (or ?v_133 P11) P25)) (or (or ?v_10 ?v_133) P25)) (or (or ?v_36 ?v_49) P24)) (or (or ?v_85 ?v_25) ?v_92)) (or (or ?v_35 ?v_99) P2)) (or (or ?v_155 ?v_105) ?v_130)) (or (or ?v_58 ?v_120) ?v_146)) (or (or ?v_56 ?v_20) ?v_150)) (or (or P0 P18) ?v_153)) (or (or ?v_138 ?v_104) ?v_125)) (or (or ?v_66 ?v_103) ?v_60)) (or (or ?v_86 ?v_39) ?v_98)) (or (or ?v_46 ?v_71) ?v_98)) (or (or ?v_93 ?v_97) ?v_134)) (or (or ?v_30 ?v_118) ?v_104)) (or (or ?v_130 ?v_99) ?v_147)) (or (or ?v_73 ?v_90) P25)) (or (or ?v_149 ?v_6) P0)) (or (or ?v_145 ?v_60) ?v_90)) (or (or ?v_40 ?v_120) P4)) (or (or ?v_33 ?v_6) ?v_132)) (or (or ?v_150 ?v_45) ?v_18)) (or (or ?v_51 ?v_38) ?v_158)) (or (or ?v_6 ?v_35) ?v_143)) (or (or ?v_91 ?v_42) P15)) (or (or P1 ?v_133) ?v_102)) (or (or ?v_50 ?v_155) ?v_70)))))))))))))))))))))))))))))
(check-sat)
(exit)
